c FILE /home/rafael/Documents/HappySet/MIHS/inputs/happygen/output/graph_scale_free_k7_p0.5_v50_20241127_082504.txt
c SOURCE This is a scale-free graph formed for the happy graph colouring problem.
c DESCRIPTION It was generated using the problem generator of Rhyd Lewis
c
c GRAPH STATS
c Seed                             = 1139682937
c Number of Nodes                  = 50
c Number of colours k              = 7
c Number of pre-assignments        = 25
c Number of links per new node     = 5
c Density                          = 0.191837
c 
c The degrees of nodes 1 to 50, respectively, are as follows 
c [26, 26, 25, 20, 18, 18, 16, 13, 13, 13, 12, 12, 12, 11, 11, 10, 10, 9, 9, 9, 8, 8, 7, 7, 7, 7, 
c  7, 7, 6, 6, 6, 6, 6, 6, 6, 6, 6, 5, 5, 5, 5, 5, 5, 5, 5, 5, 5, 5, 5, 5] 
c  
p edge 50 235 7
e 1 2
e 1 3
e 1 4
e 1 5
e 1 6
e 1 7
e 1 8
e 1 11
e 1 13
e 1 14
e 1 17
e 1 18
e 1 19
e 1 21
e 1 22
e 1 23
e 1 24
e 1 26
e 1 28
e 1 29
e 1 30
e 1 33
e 1 40
e 1 42
e 1 45
e 1 47
e 2 4
e 2 5
e 2 6
e 2 7
e 2 8
e 2 9
e 2 11
e 2 12
e 2 16
e 2 18
e 2 22
e 2 23
e 2 24
e 2 25
e 2 27
e 2 28
e 2 30
e 2 31
e 2 33
e 2 35
e 2 36
e 2 38
e 2 41
e 2 44
e 2 45
e 3 4
e 3 5
e 3 6
e 3 7
e 3 9
e 3 10
e 3 12
e 3 14
e 3 16
e 3 18
e 3 19
e 3 20
e 3 21
e 3 22
e 3 24
e 3 25
e 3 27
e 3 29
e 3 33
e 3 38
e 3 42
e 3 46
e 3 48
e 3 50
e 4 5
e 4 6
e 4 7
e 4 8
e 4 11
e 4 13
e 4 14
e 4 15
e 4 16
e 4 18
e 4 19
e 4 22
e 4 26
e 4 27
e 4 29
e 4 37
e 4 38
e 5 6
e 5 9
e 5 10
e 5 11
e 5 12
e 5 14
e 5 15
e 5 18
e 5 23
e 5 32
e 5 35
e 5 36
e 5 41
e 5 43
e 6 7
e 6 8
e 6 9
e 6 11
e 6 12
e 6 14
e 6 18
e 6 30
e 6 38
e 6 40
e 6 41
e 6 46
e 6 50
e 7 8
e 7 15
e 7 19
e 7 23
e 7 25
e 7 39
e 7 41
e 7 42
e 7 43
e 7 44
e 7 50
e 8 16
e 8 17
e 8 19
e 8 31
e 8 36
e 8 40
e 8 45
e 8 47
e 9 10
e 9 11
e 9 12
e 9 13
e 9 17
e 9 21
e 9 37
e 9 39
e 9 49
e 10 12
e 10 13
e 10 15
e 10 18
e 10 20
e 10 26
e 10 30
e 10 33
e 10 37
e 10 48
e 11 16
e 11 28
e 11 31
e 11 33
e 11 43
e 11 48
e 12 13
e 12 17
e 12 22
e 12 35
e 12 36
e 12 43
e 13 17
e 13 20
e 13 21
e 13 23
e 13 24
e 13 31
e 13 40
e 14 32
e 14 35
e 14 37
e 14 42
e 14 44
e 14 46
e 15 18
e 15 25
e 15 34
e 15 40
e 15 44
e 15 47
e 15 50
e 16 26
e 16 30
e 16 34
e 16 39
e 16 48
e 17 21
e 17 24
e 17 29
e 17 34
e 17 49
e 18 20
e 19 20
e 19 27
e 19 47
e 19 49
e 20 25
e 20 38
e 20 39
e 20 46
e 21 26
e 21 32
e 21 34
e 22 31
e 22 32
e 22 37
e 23 29
e 23 32
e 24 34
e 24 45
e 25 41
e 25 46
e 26 28
e 26 44
e 27 31
e 27 35
e 27 49
e 28 32
e 28 43
e 28 49
e 29 39
e 30 36
e 33 50
e 34 42
e 35 47
e 36 45
e 37 48
n 8 2
n 12 2
n 13 2
n 14 1
n 17 2
n 18 5
n 19 2
n 23 2
n 25 7
n 26 6
n 27 2
n 30 4
n 31 2
n 33 4
n 37 1
n 38 6
n 39 3
n 40 2
n 41 7
n 42 1
n 43 2
n 45 2
n 47 2
n 48 1
n 50 4
